%chk=w-appa-1p-nh2_mep_g09.chk
%nproc=8
%Mem=4GB
#p B3LYP/6-31G(d,p) scrf=(solvent=water)
# SCRF=(Solvent=Water)
# Gfinput IOP(6/7=3) Pop=chelp Density  Test

 w-appa-1p-nh2_opt_freq_g09.log

1  1
C          -1.00893         1.61458        -0.32912
C          -2.35413         1.80870        -0.01235
C          -3.19299         0.71679         0.20860
C          -2.64051        -0.55461         0.10126
C          -1.30619        -0.77206        -0.21454
C          -0.46562         0.32777        -0.43440
H          -0.37108         2.47637        -0.50181
H          -2.75562         2.81360         0.06082
H          -4.24110         0.85757         0.45191
H          -0.91403        -1.78214        -0.29415
C           1.00014         0.12001        -0.74590
H           1.13704        -0.81476        -1.29581
H           1.35335         0.93019        -1.39200
C           1.86000         0.08161         0.53865
H           1.74818         1.00364         1.11253
H           1.52662        -0.74787         1.17446
N          -3.51780        -1.73129         0.32140
H          -3.98158        -1.69761         1.23584
H          -4.25518        -1.79758        -0.38930
C           3.33804        -0.11071         0.27665
O           4.22744         0.56418         0.75457
O           3.57807        -1.15080        -0.55082
H           4.54291        -1.21445        -0.66181
H          -2.98783        -2.60755         0.28647

